12056
1 1 1 1 1 1 1 1 1 1
9 5 1 7 1 2 9 3 7 8 7 0 0 3 0 7 4 4 9 6 5 0 4 4 7 5 4 0 1 7 4 8 3 3 2 5 7 1 1 7 0 2 1 0 9 5 1 1 7 7 9 0 8 7 8 2 2 7 6 1 5 7 6 8 7 1 6 6 7 0 3 0 8 7 9 0 5 5 7 5 4 5 7 7 6 8 4 2 2 3